NAME : LPS-n7-m309
COMMENT : (Lartu-Peter-Santi Plot, instance 1909 out of 39200. 7 customers.)
TYPE : CVRP
DIMENSION : 7
EDGE_WEIGHT_TYPE : EUC_2D
CAPACITY : 146
NODE_COORD_SECTION
 1 59 93
 2 34 76
 3 25 12
 4 47 16
 5 79 69
 6 60 72
 7 92 75
DEMAND_SECTION
1 0
2 36
3 138
4 62
5 75
6 20
7 11
DEPOT_SECTION
 1
 -1
EOF
